&CONTROL
calculation = "relax",
restart_mode = "from_scratch",
pseudo_dir = "../../pseudopotentials/",
prefix = "batch_graph+benzene",
outdir = "outputs",
etot_conv_thr = 1.0E-5,
forc_conv_thr = 1.0D-4,
nstep = 200,
/
&SYSTEM
ibrav = 0,
celldm(1) = 4.64872593294,
nspin = 1,
occupations = "smearing",
degauss = 0.02,
ecutwfc = 32,
ecutrho = 320.0,
smearing = "gaussian",
input_dft = "vdW-DF",
nat = 36,
ntyp = 2,
/
&ELECTRONS
mixing_beta = 0.5,
electron_maxstep = 100,
conv_thr = 1.0D-6,
diagonalization = "david",
startingpot = "atomic",
startingwfc = "atomic+random",
/
&IONS
ion_dynamics = "bfgs",
/
ATOMIC_SPECIES
C   12.0107   C.pbe-rrkjus.UPF
H   1.0079   H.pbe-rrkjus_psl.1.0.0.UPF
CELL_PARAMETERS alat
3   0   0
0   3.4641016151377544   0
0   0   10
ATOMIC_POSITIONS angstrom
C   1.23   0.0   0.0
C   0.0   0.7101408311032397   0.0
C   0.0   2.130422493309719   0.0
C   1.23   2.8405633244129587   0.0
C   1.23   4.260844986619438   0.0
C   0.0   4.970985817722678   0.0
C   0.0   6.391267479929157   0.0
C   1.23   7.101408311032397   0.0
C   3.69   0.0   0.0
C   2.46   0.7101408311032397   0.0
C   2.46   2.130422493309719   0.0
C   3.69   2.8405633244129587   0.0
C   3.69   4.260844986619438   0.0
C   2.46   4.970985817722678   0.0
C   2.46   6.391267479929157   0.0
C   3.69   7.101408311032397   0.0
C   6.15   0.0   0.0
C   4.92   0.7101408311032397   0.0
C   4.92   2.130422493309719   0.0
C   6.15   2.8405633244129587   0.0
C   6.15   4.260844986619438   0.0
C   4.92   4.970985817722678   0.0
C   4.92   6.391267479929157   0.0
C   6.15   7.101408311032397   0.0
C   2.8210165449656808   2.203372067331303   3.0
C   1.4738981078233193   2.5644405562014208   3.0
C   1.1128789109977022   3.911782541262333   3.0
C   2.098983455034319   4.898036243701094   3.0
C   3.4461018921766806   4.536967754830977   3.0
C   3.8071210890022975   3.1896257697700645   3.0
H   3.1033226367777393   1.149791389402497   3.0
H   0.7026243845492448   1.7933803026084367   3.0
H   0.0594061465744522   4.193903447085291   3.0
H   1.8166773632222606   5.951616921629901   3.0
H   4.217375615450755   5.30802800842396   3.0
H   4.860593853425548   2.907504863947106   3.0
K_POINTS automatic
4   4   1   0   0   0
