&CONTROL
calculation = "relax",
restart_mode = "from_scratch",
pseudo_dir = "../../pseudopotentials/",
prefix = "batch_graph+benzene",
outdir = "outputs",
etot_conv_thr = 1.0E-5,
forc_conv_thr = 1.0D-4,
nstep = 200,
/
&SYSTEM
ibrav = 0,
celldm(1) = 4.64872593294,
nspin = 1,
occupations = "smearing",
degauss = 0.02,
ecutwfc = 32,
ecutrho = 320.0,
smearing = "gaussian",
input_dft = "vdW-DF",
nat = 36,
ntyp = 2,
/
&ELECTRONS
mixing_beta = 0.5,
electron_maxstep = 100,
conv_thr = 1.0D-6,
diagonalization = "david",
startingpot = "atomic",
startingwfc = "atomic+random",
/
&IONS
ion_dynamics = "bfgs",
/
ATOMIC_SPECIES
C   12.0107   C.pbe-rrkjus.UPF
H   1.0079   H.pbe-rrkjus_psl.1.0.0.UPF
CELL_PARAMETERS alat
3   0   0
0   3.4641016151377544   0
0   0   10
ATOMIC_POSITIONS angstrom
C   1.23   0.0   0.0
C   0.0   0.7101408311032397   0.0
C   0.0   2.130422493309719   0.0
C   1.23   2.8405633244129587   0.0
C   1.23   4.260844986619438   0.0
C   0.0   4.970985817722678   0.0
C   0.0   6.391267479929157   0.0
C   1.23   7.101408311032397   0.0
C   3.69   0.0   0.0
C   2.46   0.7101408311032397   0.0
C   2.46   2.130422493309719   0.0
C   3.69   2.8405633244129587   0.0
C   3.69   4.260844986619438   0.0
C   2.46   4.970985817722678   0.0
C   2.46   6.391267479929157   0.0
C   3.69   7.101408311032397   0.0
C   6.15   0.0   0.0
C   4.92   0.7101408311032397   0.0
C   4.92   2.130422493309719   0.0
C   6.15   2.8405633244129587   0.0
C   6.15   4.260844986619438   0.0
C   4.92   4.970985817722678   0.0
C   4.92   6.391267479929157   0.0
C   6.15   7.101408311032397   0.0
C   3.69   1.4457025064129587   3.0
C   2.482234912   2.1431277924129586   3.0
C   2.482234912   3.5379988564129587   3.0
C   3.69   4.235424142412959   3.0
C   4.897765088   3.5379988564129587   3.0
C   4.897765088   2.1431277924129586   3.0
H   3.69   0.35495552641295847   3.0
H   1.537676625   1.5979611084129586   3.0
H   1.537676625   4.083165540412959   3.0
H   3.69   5.326171122412958   3.0
H   5.842323374999999   4.083165540412959   3.0
H   5.842323374999999   1.5979611084129586   3.0
K_POINTS automatic
4   4   1   0   0   0
