&CONTROL
                 calculation = 'scf',
                restart_mode = 'from_scratch',
                      prefix = 'TCNQ-s1',
                  pseudo_dir = '../pseudos',
                     outdir  = 'out',
/
&SYSTEM
                       ibrav = 0, 
                         nat = 140,
                        ntyp = 4,
                 occupations = 'smearing',
                     degauss = 0.02
                     ecutwfc = 28.00 ,
                     ecutrho = 280.00 , 
                    smearing = 'gaussian',
		   input_dft = 'vdW-DF',
/
&ELECTRONS
            electron_maxstep = 200,
                    conv_thr = 1.0D-6 ,
                 mixing_beta = 0.5,
             diagonalization = 'david' ,
/
&IONS
                ion_dynamics = 'bfgs',
/
CELL_PARAMETERS angstrom
 20.290600   0.000000   0.000000
  0.000000  17.559500   0.000000
  0.000000   0.000000  15.000000
ATOMIC_SPECIES
    C   12.01070   C.pbe-n-kjpaw_psl.1.0.0.UPF
    H    1.00784   H.pbe-kjpaw_psl.1.0.0.UPF
    N   14.00670   N.pbe-n-kjpaw_psl.1.0.0.UPF
    B   10.81100   B.pbe-n-kjpaw_psl.1.0.0.UPF
ATOMIC_POSITIONS angstrom
 C    6.171380    8.422068    9.870778
 C    6.920763    9.652493    9.864589
 C    8.294993    9.651702    9.865653
 C    9.042711    8.420056    9.872673
 C    8.292974    7.189992    9.866488
 C    6.919360    7.190684    9.865660
 C    4.749370    8.422456    9.886849
 C    3.996510    9.630563    9.894764
 C    3.997054    7.213648    9.901798
 C   10.464583    8.418730    9.889876
 C   11.218904    9.625894    9.898188
 C   11.215811    7.209150    9.902931
 N    3.379840   10.630098    9.886468
 N    3.383533    6.212530    9.900916
 N   11.836539   10.624791    9.889775
 N   11.829414    6.208022    9.899456
 H    6.383203   10.599599    9.860799
 H    8.833973   10.597875    9.862825
 H    8.830683    6.242772    9.863397
 H    6.380431    6.244335    9.861782
 B    2.536334    1.017627    6.831583
 B    2.536295    3.944609    6.668834
 B    2.530162    6.867588    6.449502
 B    2.529596    9.795464    6.441854
 B    2.536400   12.718996    6.652976
 B    2.536930   15.645383    6.827137
 B    7.606460    1.021910    6.767963
 B    7.606275    3.947672    6.491442
 B    7.606939    6.863774    6.123226
 B    7.606743    9.800868    6.102870
 B    7.606857   12.719167    6.452577
 B    7.606618   15.643296    6.756751
 B   12.676029    1.018299    6.833416
 B   12.676210    3.945586    6.673679
 B   12.683340    6.868021    6.450490
 B   12.684047    9.795705    6.446702
 B   12.677304   12.718774    6.662439
 B   12.676418   15.645655    6.830517
 B   17.751654    1.016623    6.889175
 B   17.751896    3.944318    6.852155
 B   17.752054    6.869072    6.826087
 B   17.752203    9.793473    6.835552
 B   17.752096   12.718276    6.868312
 B   17.751787   15.646122    6.894929
 B    0.821038    1.016498    6.855518
 B    0.821989    3.946063    6.768712
 B    0.822324    6.869827    6.662011
 B    0.822955    9.791724    6.665137
 B    0.822585   12.715955    6.767494
 B    0.821475   15.644390    6.854593
 B    5.892858    1.021325    6.769162
 B    5.891771    3.947920    6.506127
 B    5.885849    6.863819    6.149830
 B    5.885103    9.800344    6.131927
 B    5.891751   12.718281    6.466663
 B    5.893331   15.643073    6.761305
 B   10.960828    1.019356    6.804658
 B   10.962637    3.944440    6.575725
 B   10.973306    6.865588    6.256737
 B   10.974560    9.798213    6.244239
 B   10.963929   12.721003    6.548420
 B   10.961084   15.644386    6.798123
 B   16.034706    1.016087    6.889271
 B   16.033802    3.944728    6.842732
 B   16.032570    6.869252    6.791547
 B   16.032454    9.792614    6.800106
 B   16.033842   12.716507    6.854020
 B   16.034622   15.646230    6.894371
 B    1.662240    2.481974    6.786908
 B    1.664659    5.409321    6.645913
 B    1.662277    8.331252    6.545959
 B    1.664975   11.253439    6.640512
 B    1.663291   14.180238    6.780607
 B    1.662652   17.110632    6.855269
 B    6.733247    2.486240    6.650670
 B    6.731274    5.403528    6.283736
 B    6.730469    8.332028    6.062380
 B    6.730919   11.263175    6.245997
 B    6.733574   14.179634    6.623419
 B    6.733421   17.112143    6.784544
 B   11.799621    2.484235    6.737641
 B   11.805932    5.406773    6.481915
 B   11.813543    8.332069    6.303244
 B   11.807442   11.258130    6.464667
 B   11.800410   14.180123    6.724404
 B   11.800284   17.111677    6.843212
 B   16.877659    2.481386    6.882858
 B   16.876629    5.407670    6.846406
 B   16.877085    8.331180    6.845281
 B   16.876944   11.254504    6.862267
 B   16.877405   14.181084    6.893765
 B   16.877218   17.111090    6.898781
 B    3.412452    2.483357    6.733085
 B    3.406762    5.406097    6.478296
 B    3.400177    8.331556    6.300574
 B    3.405912   11.258383    6.454891
 B    3.413028   14.180054    6.718370
 B    3.412557   17.111307    6.842034
 B    8.479368    2.486309    6.651421
 B    8.482352    5.403563    6.283841
 B    8.483052    8.332389    6.063460
 B    8.482700   11.263194    6.248880
 B    8.479951   14.179828    6.624105
 B    8.479609   17.112242    6.783425
 B   13.549962    2.483063    6.790996
 B   13.548363    5.409986    6.649268
 B   13.551594    8.331629    6.547932
 B   13.548355   11.253395    6.649673
 B   13.550367   14.180465    6.788074
 B   13.550227   17.111448    6.857345
 B   18.625917    2.481204    6.880800
 B   18.627178    5.407767    6.844170
 B   18.627262    8.331444    6.843446
 B   18.627470   11.254871    6.858943
 B   18.626228   14.181320    6.890610
 B   18.626011   17.111015    6.897908
 B    4.251626    1.018788    6.802554
 B    4.249702    3.943590    6.571592
 B    4.240227    6.865098    6.254369
 B    4.239033    9.798010    6.238942
 B    4.249630   12.721221    6.540742
 B    4.252159   15.644095    6.796814
 B    9.319824    1.021386    6.769055
 B    9.320779    3.948133    6.507853
 B    9.327887    6.864353    6.150459
 B    9.328392    9.800732    6.135577
 B    9.321928   12.718455    6.471245
 B    9.319978   15.643366    6.760178
 B   14.391353    1.017579    6.857704
 B   14.390659    3.946955    6.773117
 B   14.390937    6.870375    6.664172
 B   14.390912    9.792248    6.669441
 B   14.390947   12.715998    6.776057
 B   14.391542   15.645226    6.859413
 B   19.468384    1.015901    6.887406
 B   19.469698    3.944624    6.838602
 B   19.471216    6.869445    6.788925
 B   19.471909    9.792976    6.796266
 B   19.470243   12.717260    6.847854
 B   19.468733   15.646402    6.890549
K_POINTS automatic
4 4 1 0 0 0
