&CONTROL
calculation = "relax",
restart_mode = "from_scratch",
pseudo_dir = "../../pseudopotentials/",
prefix = "batch_graph+benzene",
outdir = "outputs",
etot_conv_thr = 1.0E-5,
forc_conv_thr = 1.0D-4,
nstep = 200,
/
&SYSTEM
ibrav = 0,
celldm(1) = 4.64872593294,
nspin = 1,
occupations = "smearing",
degauss = 0.02,
ecutwfc = 32,
ecutrho = 320.0,
smearing = "gaussian",
input_dft = "vdW-DF",
nat = 36,
ntyp = 2,
/
&ELECTRONS
mixing_beta = 0.5,
electron_maxstep = 100,
conv_thr = 1.0D-6,
diagonalization = "david",
startingpot = "atomic",
startingwfc = "atomic+random",
/
&IONS
ion_dynamics = "bfgs",
/
ATOMIC_SPECIES
C   12.0107   C.pbe-rrkjus.UPF
H   1.0079   H.pbe-rrkjus_psl.1.0.0.UPF
CELL_PARAMETERS alat
3   0   0
0   3.4641016151377544   0
0   0   10
ATOMIC_POSITIONS angstrom
C   1.23   0.0   0.0
C   0.0   0.7101408311032397   0.0
C   0.0   2.130422493309719   0.0
C   1.23   2.8405633244129587   0.0
C   1.23   4.260844986619438   0.0
C   0.0   4.970985817722678   0.0
C   0.0   6.391267479929157   0.0
C   1.23   7.101408311032397   0.0
C   3.69   0.0   0.0
C   2.46   0.7101408311032397   0.0
C   2.46   2.130422493309719   0.0
C   3.69   2.8405633244129587   0.0
C   3.69   4.260844986619438   0.0
C   2.46   4.970985817722678   0.0
C   2.46   6.391267479929157   0.0
C   3.69   7.101408311032397   0.0
C   6.15   0.0   0.0
C   4.92   0.7101408311032397   0.0
C   4.92   2.130422493309719   0.0
C   6.15   2.8405633244129587   0.0
C   6.15   4.260844986619438   0.0
C   4.92   4.970985817722678   0.0
C   4.92   6.391267479929157   0.0
C   6.15   7.101408311032397   0.0
C   4.387430409   1.6325784212814163   3.0
C   2.992762517988052   1.632683892199044   3.0
C   2.295326985988052   2.8406776686268738   3.0
C   2.992569591   4.048548227544501   3.0
C   4.387237482011948   4.048442756626873   3.0
C   5.084673014011948   2.8404489801990436   3.0
H   4.932803899   0.6879638275002589   3.0
H   2.447334388090939   0.6882765510581206   3.0
H   1.2047321720909392   2.8405267227677973   3.0
H   2.4471961010000003   4.993162821325658   3.0
H   4.93266561190906   4.992850097767796   3.0
H   6.17526782790906   2.84059992605812   3.0
K_POINTS automatic
4   4   1   0   0   0
