&CONTROL
calculation = "relax",
restart_mode = "from_scratch",
pseudo_dir = "../../pseudopotentials/",
prefix = "batch_graph+benzene",
outdir = "outputs",
etot_conv_thr = 1.0E-5,
forc_conv_thr = 1.0D-4,
nstep = 200,
/
&SYSTEM
ibrav = 0,
celldm(1) = 4.64872593294,
nspin = 1,
occupations = "smearing",
degauss = 0.02,
ecutwfc = 32,
ecutrho = 320.0,
smearing = "gaussian",
input_dft = "vdW-DF",
nat = 36,
ntyp = 2,
/
&ELECTRONS
mixing_beta = 0.5,
electron_maxstep = 100,
conv_thr = 1.0D-6,
diagonalization = "david",
startingpot = "atomic",
startingwfc = "atomic+random",
/
&IONS
ion_dynamics = "bfgs",
/
ATOMIC_SPECIES
C   12.0107   C.pbe-rrkjus.UPF
H   1.0079   H.pbe-rrkjus_psl.1.0.0.UPF
CELL_PARAMETERS alat
3   0   0
0   3.4641016151377544   0
0   0   10
ATOMIC_POSITIONS angstrom
C   1.23   0.0   0.0
C   0.0   0.7101408311032397   0.0
C   0.0   2.130422493309719   0.0
C   1.23   2.8405633244129587   0.0
C   1.23   4.260844986619438   0.0
C   0.0   4.970985817722678   0.0
C   0.0   6.391267479929157   0.0
C   1.23   7.101408311032397   0.0
C   3.69   0.0   0.0
C   2.46   0.7101408311032397   0.0
C   2.46   2.130422493309719   0.0
C   3.69   2.8405633244129587   0.0
C   3.69   4.260844986619438   0.0
C   2.46   4.970985817722678   0.0
C   2.46   6.391267479929157   0.0
C   3.69   7.101408311032397   0.0
C   6.15   0.0   0.0
C   4.92   0.7101408311032397   0.0
C   4.92   2.130422493309719   0.0
C   6.15   2.8405633244129587   0.0
C   6.15   4.260844986619438   0.0
C   4.92   4.970985817722678   0.0
C   4.92   6.391267479929157   0.0
C   6.15   7.101408311032397   0.0
C   4.051016544965681   1.493231236228063   3.0
C   2.7038981078233193   1.8542997250981808   3.0
C   2.342878910997702   3.201641710159093   3.0
C   3.328983455034319   4.187895412597854   3.0
C   4.676101892176681   3.8268269237277366   3.0
C   5.037121089002298   2.4794849386668245   3.0
H   4.333322636777739   0.4396505582992569   3.0
H   1.9326243845492448   1.0832394715051967   3.0
H   1.2894061465744522   3.4837626159820516   3.0
H   3.0466773632222606   5.24147609052666   3.0
H   5.447375615450755   4.597887177320721   3.0
H   6.090593853425547   2.1973640328438657   3.0
K_POINTS automatic
4   4   1   0   0   0
