&CONTROL
calculation = "relax",
restart_mode = "from_scratch",
pseudo_dir = "../pseudopotentials/",
prefix = "slabCalc_example1",
outdir = "outputs",
etot_conv_thr = 1.0E-5,
forc_conv_thr = 1.0D-4,
nstep = 200,
/
&SYSTEM
ibrav = 0,
celldm(1) = 4.64872593294,
nspin = 1,
occupations = "smearing",
degauss = 0.02,
ecutwfc = 32,
ecutrho = 320.0,
smearing = "gaussian",
input_dft = "vdW-DF",
nat = 36,
ntyp = 2,
/
&ELECTRONS
mixing_beta = 0.5,
electron_maxstep = 100,
conv_thr = 1.0D-6,
diagonalization = "david",
/
&IONS
ion_dynamics = "bfgs",
/
ATOMIC_SPECIES
C   12.0107   C.pbe-rrkjus.UPF
H   1.0079   H.pbe-rrkjus_psl.1.0.0.UPF
CELL_PARAMETERS alat
3   0   0
0   3.4641016151377544   0
0   0   0
ATOMIC_POSITIONS 
C   1.23   0.0   0.0
C   0.0   0.710141   0.0
C   0.0   2.130422   0.0
C   1.23   2.840563   0.0
C   1.23   4.260845   0.0
C   0.0   4.970986   0.0
C   0.0   6.391267   0.0
C   1.23   7.101408   0.0
C   3.69   0.0   0.0
C   2.46   0.710141   0.0
C   2.46   2.130422   0.0
C   3.69   2.840563   0.0
C   3.69   4.260845   0.0
C   2.46   4.970986   0.0
C   2.46   6.391267   0.0
C   3.69   7.101408   0.0
C   6.15   0.0   0.0
C   4.92   0.710141   0.0
C   4.92   2.130422   0.0
C   6.15   2.840563   0.0
C   6.15   4.260845   0.0
C   4.92   4.970986   0.0
C   4.92   6.391267   0.0
C   6.15   7.101408   0.0
C   4.676316   4.694811   3.0
C   3.329143   4.333946   3.0
C   2.34282   5.320269   3.0
C   2.703684   6.667442   3.0
C   4.050857   7.028307   3.0
C   5.03718   6.041984   3.0
H   5.44759   3.923537   3.0
H   3.04673   3.280552   3.0
H   1.289425   5.037857   3.0
H   1.93241   7.438717   3.0
H   4.33327   8.081702   3.0
H   6.090575   6.324397   3.0
K_POINTS automatic
4   4   1   0   0   0
