&CONTROL
calculation = "relax",
prefix = "slabcalc_simple",
pseudo_dir = "./pseudopotentials",
outdir = "./outputs",
etot_conv_thr = 1.0E-5,
forc_conv_thr = 1.0D-4,
restart_mode = "from_scratch",
nstep = 200,
/
&SYSTEM
ibrav = 0,
celldm(1) = 4.648725932,
nspin = 1,
ntyp = 2,
occupations = "smearing",
degauss = 0.02,
ecutwfc = 32,
ecutrho = 320.0,
smearing = 'gaussian',
input_dft = 'vdW-DF',
/
&ELECTRONS
mixing_beta = 0.5,
electron_maxstep = 100,
conv_thr = 1.0D-6,
diagonalization = 'david'
/
&IONS
ion_dynamics = 'bfgs'
/
CELL_PARAMETERS alat
  3  0  0
  0  3.464101615  0
  0  0  10
ATOMIC_SPECIES
C      12.0107   C.pbe-rrkjus.UPF
H      1.00784   H.pbe-rrkjus_psl.1.0.0.UPF
K_POINTS automatic
4 4 1 0 0 0
