&CONTROL
calculation = "relax",
restart_mode = "from_scratch",
pseudo_dir = "../../pseudopotentials/",
prefix = "batch_graph+benzene",
outdir = "outputs",
etot_conv_thr = 1.0E-5,
forc_conv_thr = 1.0D-4,
nstep = 200,
/
&SYSTEM
ibrav = 0,
celldm(1) = 4.64872593294,
nspin = 1,
occupations = "smearing",
degauss = 0.02,
ecutwfc = 32,
ecutrho = 320.0,
smearing = "gaussian",
input_dft = "vdW-DF",
nat = 36,
ntyp = 2,
/
&ELECTRONS
mixing_beta = 0.5,
electron_maxstep = 100,
conv_thr = 1.0D-6,
diagonalization = "david",
startingpot = "atomic",
startingwfc = "atomic+random",
/
&IONS
ion_dynamics = "bfgs",
/
ATOMIC_SPECIES
C   12.0107   C.pbe-rrkjus.UPF
H   1.0079   H.pbe-rrkjus_psl.1.0.0.UPF
CELL_PARAMETERS alat
3   0   0
0   3.4641016151377544   0
0   0   10
ATOMIC_POSITIONS angstrom
C   1.23   0.0   0.0
C   0.0   0.7101408311032397   0.0
C   0.0   2.130422493309719   0.0
C   1.23   2.8405633244129587   0.0
C   1.23   4.260844986619438   0.0
C   0.0   4.970985817722678   0.0
C   0.0   6.391267479929157   0.0
C   1.23   7.101408311032397   0.0
C   3.69   0.0   0.0
C   2.46   0.7101408311032397   0.0
C   2.46   2.130422493309719   0.0
C   3.69   2.8405633244129587   0.0
C   3.69   4.260844986619438   0.0
C   2.46   4.970985817722678   0.0
C   2.46   6.391267479929157   0.0
C   3.69   7.101408311032397   0.0
C   6.15   0.0   0.0
C   4.92   0.7101408311032397   0.0
C   4.92   2.130422493309719   0.0
C   6.15   2.8405633244129587   0.0
C   6.15   4.260844986619438   0.0
C   4.92   4.970985817722678   0.0
C   4.92   6.391267479929157   0.0
C   6.15   7.101408311032397   0.0
C   4.676315543219214   2.564388612296984   3.0
C   3.32914251031248   2.2035238775933843   3.0
C   2.342819722077185   3.1898466658286786   3.0
C   2.7036844567807856   4.537019698735413   3.0
C   4.05085748968752   4.897884433439013   3.0
C   5.037180277922815   3.9115616452037187   3.0
H   5.447590129335962   1.793114026180236   3.0
H   3.0467299994822143   1.1501292484963512   3.0
H   1.2894250929801525   2.9074341549984135   3.0
H   1.9324098706640378   5.3082942848521615   3.0
H   4.3332700005177855   5.951279062536046   3.0
H   6.090574907019848   4.193974156033984   3.0
K_POINTS automatic
4   4   1   0   0   0
