&CONTROL
                 calculation = 'relax',
                restart_mode = 'from_scratch',
                      prefix = 'iPr',
                  pseudo_dir = './pseudos',
                     out_dir = 'out',
/
&SYSTEM
                       ibrav = 0, 
                         nat = 67,
                        ntyp = 4,
                     ecutwfc = 32.00 ,
                     ecutrho = 320.00 , 
/
&ELECTRONS
            electron_maxstep = 200,
                    conv_thr = 1.0D-6 ,
                 mixing_beta = 0.5,
             diagonalization = 'david' ,
/
&IONS
                ion_dynamics = 'bfgs',
/
CELL_PARAMETERS angstrom
 30.000000   0.000000   0.000000
  0.000000  30.000000   0.000000
  0.000000   0.000000  30.000000
ATOMIC_SPECIES
    C      12.0107   C.pbe-n-kjpaw_psl.1.0.0.UPF
    H      1.00784   H.pbe-kjpaw_psl.1.0.0.UPF
    N      14.0067   N.pbe-n-kjpaw_psl.1.0.0.UPF
    Au   196.96657   Au.pbe-n-kjpaw_psl.1.0.0.UPF
ATOMIC_POSITIONS angstrom
Au 10.287734985 5.884047508 14.40434742
C 14.274389267 7.338354588 13.841913223
C 13.575048447 8.569068909 13.840171814
C 14.235717773 9.778811455 13.562369347
C 15.606472969 9.721342087 13.297700882
C 16.303798676 8.49344635 13.300540924
C 15.652289391 7.286732197 13.568051338
C 12.082660675 6.908636093 14.287680626
C 11.127447128 9.241956711 14.396092415
C 13.59506321 4.891410351 14.396159172
C 14.513240814 4.725803852 15.624256134
C 10.748006821 10.042395592 13.14086628
C 11.46241188 10.116747856 15.621751785
C 14.090164185 4.155408382 13.141618729
C 7.033788204 3.158952236 13.844702721
C 6.316357136 4.37929678 13.842229843
C 4.937164783 4.409804821 13.572031021
C 4.302614212 3.191710472 13.313220024
C 5.01828289 1.974358559 13.316199303
C 6.390353203 1.93788445 13.577571869
C 8.501808167 4.844149113 14.281093597
C 6.959010124 6.836000919 14.392876625
C 9.493232727 2.52794981 14.397065163
C 9.186601639 1.670326352 15.641687393
C 6.429368973 7.563337326 13.147519112
C 6.05858326 6.985349655 15.636144638
C 9.871533394 1.710596681 13.152801514
H 13.706634521 10.726197243 13.518622398
H 16.141143799 10.636590958 13.046746254
H 17.364822388 8.484291077 13.053963661
H 16.197038651 6.34797287 13.530280113
H 10.277194977 8.600748062 14.662340164
H 12.607554436 4.491073608 14.658538818
H 15.527610779 5.09920454 15.436418533
H 14.587656021 3.658917904 15.873491287
H 14.10211277 5.256792545 16.493368149
H 11.550320625 10.71163559 12.806059837
H 9.863378525 10.660140038 13.354640007
H 10.500486374 9.368953705 12.311573029
H 10.585536957 10.726424217 15.878224373
H 12.300187111 10.798483849 15.427544594
H 15.080515862 4.494246006 12.812459946
H 11.71587944 9.491960526 16.488750458
H 14.156905174 3.078479767 13.353779793
H 13.390950203 4.294755459 12.308784485
H 4.379068375 5.34098959 13.53242588
H 3.240259647 3.182800293 13.071708679
H 4.495914936 1.049459219 13.074827194
H 6.932679176 0.99819088 13.542492867
H 7.943976879 7.254150867 14.637928963
H 10.337203979 3.185668707 14.641880989
H 8.350482941 0.979650974 15.473731995
H 10.074035645 1.072567463 15.890341759
H 8.945331573 2.306594372 16.503757477
H 5.440411091 7.206998825 12.832813263
H 6.347175121 8.638942719 13.361911774
H 7.1170578 7.437386036 12.302250862
H 5.969028473 8.050992012 15.885450363
H 5.047745228 6.593016148 15.467074394
H 9.081291199 1.016355038 12.841556549
H 6.495292187 6.463848114 16.498725891
H 10.774621964 1.120567203 13.365318298
H 10.090435028 2.372663736 12.30562973
N 13.32292366 6.343138218 14.133267403
N 12.232608795 8.262969971 14.131614685
N 8.371927261 3.486984253 14.130117416
N 7.253289223 5.390223503 14.126418114
K_POINTS automatic
1 1 1 0 0 0
