&CONTROL
calculation = "relax",
restart_mode = "from_scratch",
pseudo_dir = "../../pseudopotentials/",
prefix = "simple_example",
outdir = "outputs",
etot_conv_thr = 1.0E-5,
forc_conv_thr = 1.0D-4,
nstep = 200,
/
&SYSTEM
ibrav = 0,
celldm(1) = 4.64872593294,
nspin = 1,
occupations = "smearing",
degauss = 0.02,
ecutwfc = 32,
ecutrho = 320.0,
smearing = "gaussian",
input_dft = "vdW-DF",
nat = 9,
ntyp = 2,
/
&ELECTRONS
mixing_beta = 0.5,
electron_maxstep = 100,
conv_thr = 1.0D-6,
diagonalization = "david",
startingpot = "atomic",
startingwfc = "atomic+random",
/
&IONS
ion_dynamics = "bfgs",
/
ATOMIC_SPECIES
C   12.0107   C.pbe-rrkjus.UPF
H   1.0079   H.pbe-rrkjus_psl.1.0.0.UPF
CELL_PARAMETERS alat
2   0   0
0   1.7320508075688772   0
0   0   10
ATOMIC_POSITIONS angstrom
C   1.23   0.0   0.0
C   0.0   0.710141   0.0
C   0.0   2.130422   0.0
C   1.23   2.840563   0.0
C   3.69   0.0   0.0
C   2.46   0.710141   0.0
C   2.46   2.130422   0.0
C   3.69   2.840563   0.0
H   1.23   1.420282   3.0
K_POINTS automatic
4   4   1   0   0   0
